54
100
80	3
79	1
78	1
77	1
76	2
75	1
74	1
72	2
71	2
70	2
68	2
66	2
65	4
64	3
63	1
62	4
61	1
59	2
58	1
57	1
56	1
55	2
53	1
52	2
50	2
49	1
48	2
47	1
46	1
44	3
42	4
41	1
40	4
37	3
36	2
33	2
31	1
29	1
28	1
27	2
26	2
25	1
24	1
22	2
21	1
20	3
18	2
17	2
16	2
15	1
14	2
13	5
12	1
10	1
